
Log started (V12.10.0.0) Mon Apr  5 23:29:12 2021


Problem 'asset.lp' read.
Read time = 0.01 sec. (0.90 ticks)
New value for default parallel thread count: 1
New value for time limit in seconds: 150
Version identifier: 12.10.0.0 | 2019-11-26 | 843d4de
CPXPARAM_Threads                                 1
CPXPARAM_TimeLimit                               150
Found incumbent of value 0.000000 after 0.00 sec. (0.24 ticks)
Tried aggregator 3 times.
MIP Presolve eliminated 1874 rows and 566 columns.
MIP Presolve modified 6940 coefficients.
Aggregator did 2977 substitutions.
Reduced MIP has 3181 rows, 3989 columns, and 18647 nonzeros.
Reduced MIP has 3610 binaries, 297 generals, 0 SOSs, and 0 indicators.
Presolve time = 0.03 sec. (35.99 ticks)
Probing fixed 13 vars, tightened 0 bounds.
Probing time = 0.04 sec. (26.54 ticks)
Cover probing fixed 5 vars, tightened 11 bounds.
Tried aggregator 1 time.
Detecting symmetries...
MIP Presolve eliminated 28 rows and 27 columns.
MIP Presolve modified 990 coefficients.
Reduced MIP has 3153 rows, 3962 columns, and 18372 nonzeros.
Reduced MIP has 3588 binaries, 292 generals, 0 SOSs, and 0 indicators.
Presolve time = 0.02 sec. (16.37 ticks)
Probing time = 0.00 sec. (3.38 ticks)
Clique table members: 10964.
MIP emphasis: balance optimality and feasibility.
MIP search method: dynamic search.
Parallel mode: none, using 1 thread.
Root relaxation solution time = 0.05 sec. (61.57 ticks)

        Nodes                                         Cuts/
   Node  Left     Objective  IInf  Best Integer    Best Bound    ItCnt     Gap

*     0+    0                            0.0000      404.0000              --- 
      0     0      398.0000   447        0.0000      398.0000      963     --- 
      0     0      398.0000   447        0.0000     Cuts: 328     2228     --- 
      0     0      398.0000   447        0.0000     Cuts: 377     3536     --- 
      0     0      398.0000   447        0.0000     Cuts: 888     5763     --- 
*     0+    0                           24.0000      398.0000              --- 
*     0+    0                          132.0000      398.0000           201.52%
      0     0        cutoff            132.0000      398.0000     5763  201.52%
Detecting symmetries...
      0     2      398.0000   436      132.0000      398.0000     5763  201.52%
Elapsed time = 4.98 sec. (6697.17 ticks, tree = 0.01 MB, solutions = 2)
      1     3      397.0000   511      132.0000      398.0000     7794  201.52%
      3     5      396.0000   510      132.0000      397.0000     9330  200.76%
      4     6      397.0000   535      132.0000      397.0000    10755  200.76%
      9    11      396.0000   539      132.0000      397.0000    12912  200.76%
     12    14      396.0000   536      132.0000      397.0000    15805  200.76%
     21    21      395.9525   494      132.0000      397.0000    18160  200.76%
     24    22      391.5872   511      132.0000      397.0000    19626  200.76%
     27    25      387.8491   512      132.0000      397.0000    21302  200.76%
     28    26      383.9525   444      132.0000      397.0000    22832  200.76%
     48    46      378.6140   423      132.0000      397.0000    30191  200.76%
Elapsed time = 7.68 sec. (10875.07 ticks, tree = 0.09 MB, solutions = 2)
     63    61      313.6796   278      132.0000      397.0000    38413  200.76%
*   148   140      integral     0      188.0000      397.0000    44032  111.17%
    149   139      397.0000   597      188.0000      397.0000    47149  111.17%
    153   143      394.0000   548      188.0000      397.0000    52382  111.17%
    159   149      394.0000   553      188.0000      397.0000    57533  111.17%
    161   151      389.8766   528      188.0000      397.0000    63007  111.17%
    166   156      385.0124   489      188.0000      397.0000    74812  111.17%
    168   158      381.7210   536      188.0000      397.0000    88381  111.17%
    176   166      391.7210   539      188.0000      397.0000    96207  111.17%
    182   172      391.7209   520      188.0000      397.0000   103547  111.17%
    184   174      391.7353   548      188.0000      397.0000   109958  111.17%
Elapsed time = 18.09 sec. (25569.98 ticks, tree = 0.49 MB, solutions = 3)
    189   179      392.0000   539      188.0000      397.0000   115781  111.17%
    191   181      384.8912   523      188.0000      397.0000   121028  111.17%
    195   183      377.8366   491      188.0000      397.0000   127171  111.17%
    200   188      372.7423   468      188.0000      397.0000   131885  111.17%
    209   197      355.5432   362      188.0000      397.0000   137796  111.17%
    224   208      293.2380   254      188.0000      397.0000   145425  111.17%
*   248+  221                          192.0000      397.0000           106.77%
    284   247      394.0000   583      192.0000      397.0000   151652  106.77%
    315   278      392.0000   393      192.0000      397.0000   155977  106.77%
    320   283      392.0000   378      192.0000      397.0000   156445  106.77%
    354   317      382.0000   424      192.0000      397.0000   161149  106.77%
Elapsed time = 26.33 sec. (37571.58 ticks, tree = 2.08 MB, solutions = 4)
    372   335      381.4233   452      192.0000      397.0000   166054  106.77%
    402   365      397.0000   628      192.0000      397.0000   170653  106.77%
    405   368      396.9233   644      192.0000      397.0000   177549  106.77%
    437   400      396.1969   532      192.0000      397.0000   182326  106.77%
    445   408      396.1693   582      192.0000      397.0000   187049  106.77%
    466   429      394.8214   464      192.0000      397.0000   191705  106.77%

Performing restart 1

Repeating presolve.
Tried aggregator 1 time.
MIP Presolve eliminated 7 rows and 2 columns.
MIP Presolve modified 3887 coefficients.
Reduced MIP has 3146 rows, 3960 columns, and 15233 nonzeros.
Reduced MIP has 3587 binaries, 291 generals, 0 SOSs, and 0 indicators.
Presolve time = 0.01 sec. (13.62 ticks)
Tried aggregator 1 time.
Reduced MIP has 3146 rows, 3960 columns, and 15233 nonzeros.
Reduced MIP has 3587 binaries, 291 generals, 0 SOSs, and 0 indicators.
Presolve time = 0.01 sec. (10.68 ticks)
Represolve time = 0.10 sec. (69.79 ticks)
    484     0      394.7987   741      192.0000     Cuts: 880   214665  105.62%
    484     0      392.6193   741      192.0000     Cuts: 706   219204  104.49%
    484     0      390.9277   741      192.0000     Cuts: 506   221926  103.61%
    484     0      389.1319   741      192.0000     Cuts: 454   224323  102.67%
    484     0      388.1292   741      192.0000     Cuts: 397   226562  102.15%
    484     0      386.6755   741      192.0000     Cuts: 384   229494  101.39%
*   484+    0                          194.0000      386.6755            99.32%
    484     0      385.9241   741      194.0000     Cuts: 375   231606   98.93%
    484     0      385.3756   741      194.0000     Cuts: 358   233601   98.65%
    484     0      384.8051   741      194.0000     Cuts: 307   236392   98.35%
*   484+    0                          196.0000      384.8051            96.33%
    484     0      384.4065   741      196.0000     Cuts: 249   238458   96.13%
    484     0      383.9262   741      196.0000     Cuts: 239   241210   95.88%
    484     0      383.6958   741      196.0000     Cuts: 283   242659   95.76%
    484     0      383.5280   741      196.0000     Cuts: 256   243809   95.68%
    484     0      383.3947   741      196.0000     Cuts: 247   244806   95.61%
    484     0      383.2593   741      196.0000     Cuts: 181   245907   95.54%
    484     0      383.1647   741      196.0000     Cuts: 200   246899   95.49%
    484     0      383.1182   741      196.0000     Cuts: 189   247491   95.47%
    484     0      383.0105   741      196.0000     Cuts: 201   248903   95.41%
    484     0      382.9597   741      196.0000     Cuts: 129   249496   95.39%
    484     0      382.7678   741      196.0000     Cuts: 188   250749   95.29%
    484     0      382.6653   741      196.0000     Cuts: 225   251611   95.24%
    484     0      382.4884   741      196.0000     Cuts: 188   252592   95.15%
    484     0      382.3912   741      196.0000     Cuts: 207   253546   95.10%
    484     0      382.2568   741      196.0000     Cuts: 204   255022   95.03%
    484     0      382.0693   741      196.0000     Cuts: 267   257170   94.93%
    484     0      381.9213   741      196.0000     Cuts: 259   258411   94.86%
    484     0      381.7916   741      196.0000     Cuts: 200   259679   94.79%
    484     0      381.6868   741      196.0000     Cuts: 187   260672   94.74%
    484     0      381.6208   741      196.0000     Cuts: 227   262285   94.70%
    484     0      381.5229   741      196.0000     Cuts: 188   263617   94.65%
    484     0      381.4354   741      196.0000     Cuts: 224   265110   94.61%
    484     0      381.3979   741      196.0000     Cuts: 196   265547   94.59%
    484     0      381.3600   741      196.0000     Cuts: 126   266391   94.57%
    484     0      381.2893   741      196.0000     Cuts: 143   267400   94.54%
    484     2      381.2893   759      196.0000      381.2891   267400   94.54%
    486     4      381.2782   736      196.0000      381.2799   268396   94.53%
    487     5      375.9584   628      196.0000      381.2781   275697   94.53%
    489     7      375.0911   664      196.0000      381.2748   282674   94.53%
Elapsed time = 74.53 sec. (97673.42 ticks, tree = 0.01 MB, solutions = 6)
    490     8      380.8944   716      196.0000      381.2427   285857   94.51%
    492    10      370.8742   635      196.0000      381.2427   295962   94.51%
    494    12      375.7238   636      196.0000      381.2427   304775   94.51%
    496    14      379.8164   677      196.0000      381.2427   309256   94.51%
    499    17      380.3194   680      196.0000      381.2427   310546   94.51%
    501    19      380.0691   666      196.0000      381.2427   314018   94.51%
    502    20      378.3559   655      196.0000      381.2427   315932   94.51%
    504    22      380.0322   672      196.0000      381.2427   318425   94.51%
    506    24      376.7589   620      196.0000      381.2427   325298   94.51%
    509    27      377.8067   636      196.0000      381.2427   330523   94.51%
Elapsed time = 87.38 sec. (115833.47 ticks, tree = 0.38 MB, solutions = 6)
    511    29      379.7247   659      196.0000      381.2427   334207   94.51%
    513    31      376.2060   641      196.0000      381.2427   340132   94.51%
    514    32      379.6526   650      196.0000      381.2427   340967   94.51%
    516    34      379.5722   648      196.0000      381.2427   343582   94.51%
    518    36      379.5019   631      196.0000      381.2427   346443   94.51%
    520    38      375.9471   631      196.0000      381.2427   352213   94.51%
    523    41      377.3827   614      196.0000      381.2427   359241   94.51%
    524    42      379.1836   651      196.0000      381.2427   360219   94.51%
    527    45      371.4704   608      196.0000      381.2427   367521   94.51%
    530    48      372.7162   621      196.0000      381.2427   373105   94.51%
Elapsed time = 100.90 sec. (134900.48 ticks, tree = 0.80 MB, solutions = 6)
    531    49      378.1326   655      196.0000      381.2427   376016   94.51%
    534    52      377.9170   648      196.0000      381.2427   378680   94.51%
    536    54      377.7975   636      196.0000      381.2427   381904   94.51%
    538    56      377.7727   633      196.0000      381.2427   384855   94.51%
    540    58      374.5064   603      196.0000      381.2427   390305   94.51%
    542    60      375.8706   628      196.0000      381.2427   394037   94.51%
    544    62      375.9473   593      196.0000      381.2427   397319   94.51%
    546    64      377.1021   648      196.0000      381.2427   401029   94.51%
    549    67      374.9430   618      196.0000      381.2427   404663   94.51%
    552    70      374.6387   596      196.0000      381.2427   409319   94.51%
Elapsed time = 117.83 sec. (157902.41 ticks, tree = 1.05 MB, solutions = 6)
    554    72      374.6539   653      196.0000      381.2427   413169   94.51%
    557    75      375.9494   673      196.0000      381.2427   415166   94.51%
    558    76      374.6355   660      196.0000      381.2427   420126   94.51%
    560    78      375.7741   664      196.0000      381.2427   422604   94.51%
    562    80      375.6155   645      196.0000      381.2427   426060   94.51%
    564    82      375.4430   671      196.0000      381.2427   430459   94.51%
    565    83      368.3226   582      196.0000      381.2427   437161   94.51%
    568    86      371.7032   631      196.0000      381.2427   442407   94.51%
    569    87      373.7821   655      196.0000      381.2427   448455   94.51%
    572    90      371.7048   625      196.0000      381.2427   453436   94.51%
Elapsed time = 127.53 sec. (171362.92 ticks, tree = 1.14 MB, solutions = 6)
    574    92      373.6615   638      196.0000      381.2427   455821   94.51%
    578    96      374.4429   653      196.0000      381.2427   460294   94.51%
    580    98      374.4221   651      196.0000      381.2427   464795   94.51%
    582   100      367.7124   606      196.0000      381.2427   467973   94.51%
    584   102      374.2819   644      196.0000      381.2427   468571   94.51%
    587   105      372.2190   596      196.0000      381.2427   471500   94.51%
    590   108      373.5828   617      196.0000      381.2427   474261   94.51%
    594   112      370.7131   593      196.0000      381.2427   476872   94.51%
    598   116      372.9409   605      196.0000      381.2427   479668   94.51%
    600   118      369.4608   578      196.0000      381.2427   482657   94.51%
Elapsed time = 137.05 sec. (184188.05 ticks, tree = 1.79 MB, solutions = 6)
    603   121      369.6979   576      196.0000      381.2427   487894   94.51%
    604   122      372.4036   601      196.0000      381.2427   489560   94.51%
    610   128      372.1086   590      196.0000      381.2427   491920   94.51%
    613   131      364.8135   574      196.0000      381.2427   497904   94.51%
    616   134      366.9242   559      196.0000      381.2427   500787   94.51%
    622   140      366.6388   547      196.0000      381.2427   505448   94.51%
    626   144      371.4756   588      196.0000      381.2427   508115   94.51%
    629   147      371.4055   582      196.0000      381.2427   510469   94.51%
    632   150      366.4289   609      196.0000      381.2427   514421   94.51%
    647   165      368.5435   552      196.0000      381.2427   524676   94.51%
Elapsed time = 149.03 sec. (200420.99 ticks, tree = 3.25 MB, solutions = 6)

GUB cover cuts applied:  149
Clique cuts applied:  191
Cover cuts applied:  30
Implied bound cuts applied:  124
Flow cuts applied:  7
Mixed integer rounding cuts applied:  95
Zero-half cuts applied:  133
Gomory fractional cuts applied:  4

Root node processing (before b&c):
  Real time             =    4.96 sec. (6677.30 ticks)
Sequential b&c:
  Real time             =  145.04 sec. (195094.95 ticks)
                          ------------
Total (root+branch&cut) =  150.00 sec. (201772.25 ticks)

Solution pool: 7 solutions saved.

MIP - Time limit exceeded, integer feasible:  Objective =  1.9600000000e+02
Current MIP best bound =  3.8124267240e+02 (gap = 185.243, 94.51%)
Solution time =  150.00 sec.  Iterations = 528264  Nodes = 652 (169)
Deterministic time = 201772.28 ticks  (1345.12 ticks/sec)


Incumbent solution
Variable Name           Solution Value
F                           196.000000
y7                            1.000000
y8                            1.000000
y9                            1.000000
y11                           1.000000
y13                           1.000000
y16                           1.000000
y20                           1.000000
y41                           1.000000
y48                           1.000000
y52                           1.000000
y55                           1.000000
y66                           1.000000
y93                           1.000000
y103                          1.000000
y113                          1.000000
y130                          1.000000
y143                          1.000000
y159                          1.000000
y161                          1.000000
y169                          1.000000
y180                          1.000000
y188                          1.000000
y189                          1.000000
y198                          1.000000
y205                          1.000000
y213                          1.000000
y220                          1.000000
y223                          1.000000
y251                          1.000000
y254                          1.000000
y258                          1.000000
y272                          1.000000
y273                          1.000000
y284                          1.000000
x42x13x1                      1.000000
x57x9x1                       1.000000
x83x9x1                       1.000000
x122x11x1                     1.000000
x152x7x1                      1.000000
x177x284x1                    1.000000
x228x113x1                    1.000000
x229x41x1                     1.000000
x255x13x1                     1.000000
x42x188x2                     1.000000
x62x20x2                      1.000000
x122x20x2                     1.000000
x152x159x2                    1.000000
x174x220x2                    2.000000
x228x113x2                    1.000000
x255x52x2                     1.000000
x279x41x2                     1.000000
x279x284x2                    1.000000
x3x11x3                       1.000000
x3x52x3                       1.000000
x12x7x3                       1.000000
x57x169x3                     1.000000
x62x169x3                     1.000000
x83x159x3                     1.000000
x164x93x3                     1.000000
x164x180x3                    1.000000
x169x189x3                    1.000000
x169x273x3                    1.000000
x177x93x3                     1.000000
x7x205x1                      1.000000
x7x198x3                      1.000000
x220x8x2                      2.000000
x8x205x2                      1.000000
x8x223x2                      1.000000
x9x213x1                      2.000000
x11x180x1                     1.000000
x11x188x3                     1.000000
x13x55x1                      1.000000
x13x130x1                     1.000000
x52x16x2                      1.000000
x16x48x2                      1.000000
x52x16x3                      1.000000
x16x143x3                     1.000000
x20x130x2                     1.000000
x20x272x2                     1.000000
x41x143x1                     1.000000
x41x103x2                     1.000000
x180x48x1                     1.000000
x48x0x1                       1.000000
x48x0x2                       1.000000
x55x0x1                       1.000000
x159x55x3                     1.000000
x55x0x3                       1.000000
x188x66x2                     1.000000
x66x0x2                       1.000000
x188x66x3                     1.000000
x66x0x3                       1.000000
x93x254x3                     2.000000
x113x103x2                    1.000000
x103x0x2                      2.000000
x113x272x1                    1.000000
x130x258x1                    1.000000
x130x258x2                    1.000000
x143x0x1                      1.000000
x143x0x3                      1.000000
x159x198x2                    1.000000
x213x161x1                    2.000000
x161x0x1                      2.000000
x180x223x3                    1.000000
x189x0x3                      2.000000
x198x0x2                      1.000000
x198x0x3                      1.000000
x205x0x1                      1.000000
x205x0x2                      1.000000
x223x0x2                      1.000000
x223x0x3                      1.000000
x284x251x1                    1.000000
x251x0x1                      1.000000
x284x251x2                    1.000000
x251x0x2                      1.000000
x254x0x3                      2.000000
x258x0x1                      1.000000
x258x0x2                      1.000000
x272x0x1                      1.000000
x272x0x2                      1.000000
x273x0x3                      2.000000
s3                            4.817329
s7                            7.240658
s11                           6.310000
z3z11z3                       1.000000
s16                           7.842096
s37                           7.260000
s52                           6.680851
z3z52z3                       1.000000
s55                           8.311760
s64                           7.780000
s66                           9.020000
s80                           8.440000
s82                           7.580000
z3z82z3                       1.000000
s92                           8.980000
s93                           7.186430
z3z93z3                       1.000000
s110                          6.000000
s126                          7.520000
s127                          7.990000
z3z127z3                      1.000000
s132                          7.240000
s135                          9.250000
s137                          9.170000
s143                          9.130000
s158                          7.490000
z3z158z3                      1.000000
s159                          7.109330
s168                          9.380000
s169                          6.733201
z3z169z3                      1.000000
s180                          7.579979
s181                          6.656991
s187                          7.720000
z3z187z3                      1.000000
s188                          7.570000
s189                          8.142536
z3z189z3                      1.000000
s193                          7.630000
s198                          8.770000
s199                          7.650000
z3z199z3                      1.000000
s201                          7.440000
s209                          7.310000
z3z209z3                      1.000000
s214                          8.820000
s223                          9.240000
s231                          8.930000
s252                          8.600000
z3z252z3                      1.000000
s254                          8.700000
z3z254z3                      1.000000
s263                          8.120000
s265                          9.370000
z3z265z3                      1.000000
s267                          8.490000
s273                          8.085211
z3z273z3                      1.000000
s12                           5.126059
s2                            6.610000
s5                            8.500000
z12z5z1                       1.000000
z12z7z3                       1.000000
s9                            6.615858
s13                           6.580410
s22                           7.860000
z12z22z1                      1.000000
s24                           7.920000
z12z24z1                      1.000000
s29                           8.310000
z12z29z1                      1.000000
s30                           7.620000
z12z30z1                      1.000000
s41                           7.630000
s48                           9.240000
s53                           6.420000
s56                           7.790000
z12z56z1                      1.000000
s72                           6.000000
s76                           8.230000
z12z76z1                      1.000000
z12z82z3                      1.000000
s87                           7.830000
s96                           9.380000
z12z96z1                      1.000000
s113                          7.542368
s115                          6.660000
s125                          7.640000
z12z125z1                     1.000000
z12z127z3                     1.000000
s128                          9.360000
z12z128z1                     1.000000
s130                          8.099412
z12z158z3                     1.000000
s161                          9.430000
z12z161z1                     1.000000
s176                          9.350000
z12z187z3                     1.000000
z12z189z3                     1.000000
z12z199z3                     1.000000
s205                          9.175901
z12z209z3                     1.000000
s213                          8.249507
z12z213z1                     1.000000
s217                          6.684415
s241                          7.720000
z12z241z1                     1.000000
s251                          8.363657
z12z252z3                     1.000000
z12z254z3                     1.000000
s257                          7.300000
s258                          9.440000
z12z265z3                     1.000000
s269                          7.730000
s272                          8.750000
z12z273z3                     1.000000
s278                          6.841638
s281                          6.668012
s284                          7.283103
s42                           5.230308
z42z5z1                       1.000000
s6                            7.680000
z42z6z2                       1.000000
s8                            8.140000
z42z8z2                       1.000000
z42z13z1                      1.000000
s20                           6.925566
z42z22z1                      1.000000
z42z24z1                      1.000000
z42z29z1                      1.000000
z42z30z1                      1.000000
z42z56z1                      1.000000
z42z76z1                      1.000000
z42z96z1                      1.000000
s103                          9.007173
z42z103z2                     1.000000
z42z125z1                     1.000000
z42z128z1                     1.000000
s148                          6.545082
z42z161z1                     1.000000
s166                          7.660000
s178                          8.810000
z42z178z2                     1.000000
z42z188z2                     1.000000
z42z213z1                     1.000000
s220                          6.412668
z42z241z1                     1.000000
s260                          6.460000
s57                           5.206843
z57z5z1                       1.000000
z57z9z1                       1.000000
z57z22z1                      1.000000
z57z24z1                      1.000000
z57z29z1                      1.000000
z57z30z1                      1.000000
z57z56z1                      1.000000
z57z76z1                      1.000000
z57z82z3                      1.000000
z57z96z1                      1.000000
z57z125z1                     1.000000
z57z127z3                     1.000000
z57z128z1                     1.000000
z57z158z3                     1.000000
z57z161z1                     1.000000
z57z169z3                     1.000000
z57z187z3                     1.000000
z57z189z3                     1.000000
z57z199z3                     1.000000
z57z209z3                     1.000000
z57z213z1                     1.000000
z57z241z1                     1.000000
z57z252z3                     1.000000
z57z254z3                     1.000000
z57z265z3                     1.000000
z57z273z3                     1.000000
s62                           5.146264
z62z6z2                       1.000000
z62z8z2                       1.000000
z62z20z2                      1.000000
z62z82z3                      1.000000
z62z103z2                     1.000000
z62z127z3                     1.000000
z62z158z3                     1.000000
z62z169z3                     1.000000
z62z178z2                     1.000000
z62z187z3                     1.000000
z62z189z3                     1.000000
z62z199z3                     1.000000
z62z209z3                     1.000000
z62z252z3                     1.000000
z62z254z3                     1.000000
z62z265z3                     1.000000
z62z273z3                     1.000000
s83                           5.164907
z83z5z1                       1.000000
z83z9z1                       1.000000
z83z22z1                      1.000000
z83z24z1                      1.000000
z83z29z1                      1.000000
z83z30z1                      1.000000
z83z56z1                      1.000000
z83z76z1                      1.000000
z83z82z3                      1.000000
z83z96z1                      1.000000
z83z125z1                     1.000000
z83z127z3                     1.000000
z83z128z1                     1.000000
z83z158z3                     1.000000
z83z159z3                     1.000000
z83z161z1                     1.000000
z83z187z3                     1.000000
z83z189z3                     1.000000
z83z199z3                     1.000000
z83z209z3                     1.000000
z83z213z1                     1.000000
z83z241z1                     1.000000
z83z252z3                     1.000000
z83z254z3                     1.000000
z83z265z3                     1.000000
z83z273z3                     1.000000
z110z161z1                    1.000000
z110z265z3                    1.000000
s122                          4.359206
z122z5z1                      1.000000
z122z6z2                      1.000000
z122z8z2                      1.000000
z122z11z1                     1.000000
z122z20z2                     1.000000
z122z22z1                     1.000000
z122z24z1                     1.000000
z122z29z1                     1.000000
z122z30z1                     1.000000
z122z53z1                     1.000000
z122z56z1                     1.000000
z122z76z1                     1.000000
z122z96z1                     1.000000
z122z103z2                    1.000000
z122z125z1                    1.000000
z122z128z1                    1.000000
z122z161z1                    1.000000
z122z166z2                    1.000000
z122z178z2                    1.000000
z122z213z1                    1.000000
z122z241z1                    1.000000
z122z260z2                    1.000000
s152                          5.375447
z152z5z1                      1.000000
z152z6z2                      1.000000
z152z7z1                      1.000000
z152z8z2                      1.000000
z152z22z1                     1.000000
z152z24z1                     1.000000
z152z29z1                     1.000000
z152z30z1                     1.000000
z152z56z1                     1.000000
z152z96z1                     1.000000
z152z103z2                    1.000000
z152z125z1                    1.000000
z152z128z1                    1.000000
z152z159z2                    1.000000
z152z161z1                    1.000000
z152z178z2                    1.000000
z152z213z1                    1.000000
z152z241z1                    1.000000
s164                          5.786445
z164z82z3                     1.000000
z164z93z3                     1.000000
z164z127z3                    1.000000
z164z158z3                    1.000000
z164z180z3                    1.000000
z164z187z3                    1.000000
z164z199z3                    1.000000
z164z252z3                    1.000000
z164z254z3                    1.000000
z164z265z3                    1.000000
z164z273z3                    1.000000
z169z189z3                    1.000000
z169z265z3                    1.000000
z169z273z3                    1.000000
s174                          4.997528
z174z6z2                      1.000000
z174z8z2                      1.000000
z174z20z2                     1.000000
z174z103z2                    1.000000
z174z166z2                    1.000000
z174z178z2                    1.000000
z174z220z2                    1.000000
s177                          5.658112
z177z5z1                      1.000000
z177z22z1                     1.000000
z177z24z1                     1.000000
z177z29z1                     1.000000
z177z30z1                     1.000000
z177z56z1                     1.000000
z177z82z3                     1.000000
z177z93z3                     1.000000
z177z96z1                     1.000000
z177z125z1                    1.000000
z177z127z3                    1.000000
z177z128z1                    1.000000
z177z158z3                    1.000000
z177z161z1                    1.000000
z177z187z3                    1.000000
z177z189z3                    1.000000
z177z199z3                    1.000000
z177z209z3                    1.000000
z177z213z1                    1.000000
z177z241z1                    1.000000
z177z252z3                    1.000000
z177z254z3                    1.000000
z177z265z3                    1.000000
z177z273z3                    1.000000
z177z284z1                    1.000000
z217z161z1                    1.000000
s228                          5.918758
z228z6z2                      1.000000
z228z8z2                      1.000000
z228z22z1                     1.000000
z228z24z1                     1.000000
z228z29z1                     1.000000
z228z30z1                     1.000000
z228z56z1                     1.000000
z228z96z1                     1.000000
z228z103z2                    1.000000
z228z113z1                    1.000000
z228z113z2                    1.000000
z228z125z1                    1.000000
z228z128z1                    1.000000
z228z161z1                    1.000000
z228z178z2                    1.000000
z228z213z1                    1.000000
z228z241z1                    1.000000
s229                          5.887379
z229z6z2                      1.000000
z229z8z2                      1.000000
z229z22z1                     1.000000
z229z24z1                     1.000000
z229z29z1                     1.000000
z229z30z1                     1.000000
z229z41z1                     1.000000
z229z56z1                     1.000000
z229z96z1                     1.000000
z229z103z2                    1.000000
z229z125z1                    1.000000
z229z128z1                    1.000000
z229z161z1                    1.000000
z229z178z2                    1.000000
z229z213z1                    1.000000
z229z241z1                    1.000000
s255                          4.905909
z255z5z1                      1.000000
z255z6z2                      1.000000
z255z8z2                      1.000000
z255z13z1                     1.000000
z255z20z2                     1.000000
z255z22z1                     1.000000
z255z24z1                     1.000000
z255z29z1                     1.000000
z255z30z1                     1.000000
z255z52z2                     1.000000
z255z53z1                     1.000000
z255z56z1                     1.000000
z255z76z1                     1.000000
z255z96z1                     1.000000
z255z103z2                    1.000000
z255z125z1                    1.000000
z255z128z1                    1.000000
z255z161z1                    1.000000
z255z166z2                    1.000000
z255z178z2                    1.000000
z255z213z1                    1.000000
z255z241z1                    1.000000
s279                          5.224523
z279z6z2                      1.000000
z279z8z2                      1.000000
z279z41z2                     1.000000
z279z103z2                    1.000000
z279z178z2                    1.000000
z279z284z2                    1.000000
z2z161z1                      1.000000
z7z198z3                      1.000000
z7z205z1                      1.000000
z8z205z2                      1.000000
z8z223z2                      1.000000
z9z161z1                      1.000000
z9z213z1                      1.000000
z11z161z1                     1.000000
z11z180z1                     1.000000
z11z188z3                     1.000000
z11z265z3                     1.000000
z13z55z1                      1.000000
z13z130z1                     1.000000
z13z161z1                     1.000000
z16z48z2                      1.000000
z16z143z3                     1.000000
z20z130z2                     1.000000
z20z272z2                     1.000000
z41z103z2                     1.000000
z41z143z1                     1.000000
z52z16z2                      1.000000
z52z16z3                      1.000000
z52z265z3                     1.000000
z53z161z1                     1.000000
z72z161z1                     1.000000
z93z254z3                     1.000000
z93z265z3                     1.000000
z113z103z2                    1.000000
z113z161z1                    1.000000
z113z272z1                    1.000000
z115z161z1                    1.000000
z126z161z1                    1.000000
z126z265z3                    1.000000
z130z258z1                    1.000000
z130z258z2                    1.000000
z148z96z1                     1.000000
z148z161z1                    1.000000
z159z55z3                     1.000000
z159z198z2                    1.000000
z159z265z3                    1.000000
z180z48z1                     1.000000
z180z161z1                    1.000000
z180z223z3                    1.000000
z180z265z3                    1.000000
z181z161z1                    1.000000
z181z265z3                    1.000000
z188z66z2                     1.000000
z188z66z3                     1.000000
z188z265z3                    1.000000
z193z161z1                    1.000000
z193z265z3                    1.000000
z213z161z1                    1.000000
z220z8z2                      1.000000
z278z161z1                    1.000000
z281z161z1                    1.000000
z284z251z1                    1.000000
z284z251z2                    1.000000
All other variables in the range 1-7534 are 0.
